Traveling Salesman Problem/TSP_generados/Aleatorio1620390984_12.tsp
NAME: Aleatorio1620390984_12.tsp
COMMENT: Randomly generated scenario
TYPE: TSP
DIMENSION: 12
EDGE_WEIGHT_TYPE: ATT
NODE_COORD_SECTION
1 10.59 48.42
2 32.2 7.49
3 6.6 38.97
4 20.35 48.6
5 28.23 26.08
6 47.53 2.54
7 19.3 1.49
8 13.59 6.41
9 23.41 28.07
10 44.38 10.98
11 9.92 6.71
12 9.16 31.78
