Traveling Salesman Problem/TSP_generados/Aleatorio1620390984_12.opt.tour
NAME: Aleatorio1620390984_12.opt.tour
COMMENT: Optimal solution for Aleatorio1620390984_12 (151.3787539826732)
TYPE: TOUR
DIMENSION: 12
TOUR_SECTION
1 3 12 11 8 7 2 6 10 5 9 4
-1
EOF
